n = 100;
rows = 2000;
supports = [|
    1,2,
  | 1,3,
  | 1,4,
  | 1,5,
  | 1,6,
  | 1,7,
  | 1,8,
  | 1,9,
  | 1,10,
  | 1,11,
  | 1,91,
  | 1,92,
  | 1,93,
  | 1,94,
  | 1,95,
  | 1,96,
  | 1,97,
  | 1,98,
  | 1,99,
  | 1,100,
  | 2,1,
  | 2,3,
  | 2,4,
  | 2,5,
  | 2,6,
  | 2,7,
  | 2,8,
  | 2,9,
  | 2,10,
  | 2,11,
  | 2,12,
  | 2,92,
  | 2,93,
  | 2,94,
  | 2,95,
  | 2,96,
  | 2,97,
  | 2,98,
  | 2,99,
  | 2,100,
  | 3,1,
  | 3,2,
  | 3,4,
  | 3,5,
  | 3,6,
  | 3,7,
  | 3,8,
  | 3,9,
  | 3,10,
  | 3,11,
  | 3,12,
  | 3,13,
  | 3,93,
  | 3,94,
  | 3,95,
  | 3,96,
  | 3,97,
  | 3,98,
  | 3,99,
  | 3,100,
  | 4,1,
  | 4,2,
  | 4,3,
  | 4,5,
  | 4,6,
  | 4,7,
  | 4,8,
  | 4,9,
  | 4,10,
  | 4,11,
  | 4,12,
  | 4,13,
  | 4,14,
  | 4,94,
  | 4,95,
  | 4,96,
  | 4,97,
  | 4,98,
  | 4,99,
  | 4,100,
  | 5,1,
  | 5,2,
  | 5,3,
  | 5,4,
  | 5,6,
  | 5,7,
  | 5,8,
  | 5,9,
  | 5,10,
  | 5,11,
  | 5,12,
  | 5,13,
  | 5,14,
  | 5,15,
  | 5,95,
  | 5,96,
  | 5,97,
  | 5,98,
  | 5,99,
  | 5,100,
  | 6,1,
  | 6,2,
  | 6,3,
  | 6,4,
  | 6,5,
  | 6,7,
  | 6,8,
  | 6,9,
  | 6,10,
  | 6,11,
  | 6,12,
  | 6,13,
  | 6,14,
  | 6,15,
  | 6,16,
  | 6,96,
  | 6,97,
  | 6,98,
  | 6,99,
  | 6,100,
  | 7,1,
  | 7,2,
  | 7,3,
  | 7,4,
  | 7,5,
  | 7,6,
  | 7,8,
  | 7,9,
  | 7,10,
  | 7,11,
  | 7,12,
  | 7,13,
  | 7,14,
  | 7,15,
  | 7,16,
  | 7,17,
  | 7,97,
  | 7,98,
  | 7,99,
  | 7,100,
  | 8,1,
  | 8,2,
  | 8,3,
  | 8,4,
  | 8,5,
  | 8,6,
  | 8,7,
  | 8,9,
  | 8,10,
  | 8,11,
  | 8,12,
  | 8,13,
  | 8,14,
  | 8,15,
  | 8,16,
  | 8,17,
  | 8,18,
  | 8,98,
  | 8,99,
  | 8,100,
  | 9,1,
  | 9,2,
  | 9,3,
  | 9,4,
  | 9,5,
  | 9,6,
  | 9,7,
  | 9,8,
  | 9,10,
  | 9,11,
  | 9,12,
  | 9,13,
  | 9,14,
  | 9,15,
  | 9,16,
  | 9,17,
  | 9,18,
  | 9,19,
  | 9,99,
  | 9,100,
  | 10,1,
  | 10,2,
  | 10,3,
  | 10,4,
  | 10,5,
  | 10,6,
  | 10,7,
  | 10,8,
  | 10,9,
  | 10,11,
  | 10,12,
  | 10,13,
  | 10,14,
  | 10,15,
  | 10,16,
  | 10,17,
  | 10,18,
  | 10,19,
  | 10,20,
  | 10,100,
  | 11,1,
  | 11,2,
  | 11,3,
  | 11,4,
  | 11,5,
  | 11,6,
  | 11,7,
  | 11,8,
  | 11,9,
  | 11,10,
  | 11,12,
  | 11,13,
  | 11,14,
  | 11,15,
  | 11,16,
  | 11,17,
  | 11,18,
  | 11,19,
  | 11,20,
  | 11,21,
  | 12,2,
  | 12,3,
  | 12,4,
  | 12,5,
  | 12,6,
  | 12,7,
  | 12,8,
  | 12,9,
  | 12,10,
  | 12,11,
  | 12,13,
  | 12,14,
  | 12,15,
  | 12,16,
  | 12,17,
  | 12,18,
  | 12,19,
  | 12,20,
  | 12,21,
  | 12,22,
  | 13,3,
  | 13,4,
  | 13,5,
  | 13,6,
  | 13,7,
  | 13,8,
  | 13,9,
  | 13,10,
  | 13,11,
  | 13,12,
  | 13,14,
  | 13,15,
  | 13,16,
  | 13,17,
  | 13,18,
  | 13,19,
  | 13,20,
  | 13,21,
  | 13,22,
  | 13,23,
  | 14,4,
  | 14,5,
  | 14,6,
  | 14,7,
  | 14,8,
  | 14,9,
  | 14,10,
  | 14,11,
  | 14,12,
  | 14,13,
  | 14,15,
  | 14,16,
  | 14,17,
  | 14,18,
  | 14,19,
  | 14,20,
  | 14,21,
  | 14,22,
  | 14,23,
  | 14,24,
  | 15,5,
  | 15,6,
  | 15,7,
  | 15,8,
  | 15,9,
  | 15,10,
  | 15,11,
  | 15,12,
  | 15,13,
  | 15,14,
  | 15,16,
  | 15,17,
  | 15,18,
  | 15,19,
  | 15,20,
  | 15,21,
  | 15,22,
  | 15,23,
  | 15,24,
  | 15,25,
  | 16,6,
  | 16,7,
  | 16,8,
  | 16,9,
  | 16,10,
  | 16,11,
  | 16,12,
  | 16,13,
  | 16,14,
  | 16,15,
  | 16,17,
  | 16,18,
  | 16,19,
  | 16,20,
  | 16,21,
  | 16,22,
  | 16,23,
  | 16,24,
  | 16,25,
  | 16,26,
  | 17,7,
  | 17,8,
  | 17,9,
  | 17,10,
  | 17,11,
  | 17,12,
  | 17,13,
  | 17,14,
  | 17,15,
  | 17,16,
  | 17,18,
  | 17,19,
  | 17,20,
  | 17,21,
  | 17,22,
  | 17,23,
  | 17,24,
  | 17,25,
  | 17,26,
  | 17,27,
  | 18,8,
  | 18,9,
  | 18,10,
  | 18,11,
  | 18,12,
  | 18,13,
  | 18,14,
  | 18,15,
  | 18,16,
  | 18,17,
  | 18,19,
  | 18,20,
  | 18,21,
  | 18,22,
  | 18,23,
  | 18,24,
  | 18,25,
  | 18,26,
  | 18,27,
  | 18,28,
  | 19,9,
  | 19,10,
  | 19,11,
  | 19,12,
  | 19,13,
  | 19,14,
  | 19,15,
  | 19,16,
  | 19,17,
  | 19,18,
  | 19,20,
  | 19,21,
  | 19,22,
  | 19,23,
  | 19,24,
  | 19,25,
  | 19,26,
  | 19,27,
  | 19,28,
  | 19,29,
  | 20,10,
  | 20,11,
  | 20,12,
  | 20,13,
  | 20,14,
  | 20,15,
  | 20,16,
  | 20,17,
  | 20,18,
  | 20,19,
  | 20,21,
  | 20,22,
  | 20,23,
  | 20,24,
  | 20,25,
  | 20,26,
  | 20,27,
  | 20,28,
  | 20,29,
  | 20,30,
  | 21,11,
  | 21,12,
  | 21,13,
  | 21,14,
  | 21,15,
  | 21,16,
  | 21,17,
  | 21,18,
  | 21,19,
  | 21,20,
  | 21,22,
  | 21,23,
  | 21,24,
  | 21,25,
  | 21,26,
  | 21,27,
  | 21,28,
  | 21,29,
  | 21,30,
  | 21,31,
  | 22,12,
  | 22,13,
  | 22,14,
  | 22,15,
  | 22,16,
  | 22,17,
  | 22,18,
  | 22,19,
  | 22,20,
  | 22,21,
  | 22,23,
  | 22,24,
  | 22,25,
  | 22,26,
  | 22,27,
  | 22,28,
  | 22,29,
  | 22,30,
  | 22,31,
  | 22,32,
  | 23,13,
  | 23,14,
  | 23,15,
  | 23,16,
  | 23,17,
  | 23,18,
  | 23,19,
  | 23,20,
  | 23,21,
  | 23,22,
  | 23,24,
  | 23,25,
  | 23,26,
  | 23,27,
  | 23,28,
  | 23,29,
  | 23,30,
  | 23,31,
  | 23,32,
  | 23,33,
  | 24,14,
  | 24,15,
  | 24,16,
  | 24,17,
  | 24,18,
  | 24,19,
  | 24,20,
  | 24,21,
  | 24,22,
  | 24,23,
  | 24,25,
  | 24,26,
  | 24,27,
  | 24,28,
  | 24,29,
  | 24,30,
  | 24,31,
  | 24,32,
  | 24,33,
  | 24,34,
  | 25,15,
  | 25,16,
  | 25,17,
  | 25,18,
  | 25,19,
  | 25,20,
  | 25,21,
  | 25,22,
  | 25,23,
  | 25,24,
  | 25,26,
  | 25,27,
  | 25,28,
  | 25,29,
  | 25,30,
  | 25,31,
  | 25,32,
  | 25,33,
  | 25,34,
  | 25,35,
  | 26,16,
  | 26,17,
  | 26,18,
  | 26,19,
  | 26,20,
  | 26,21,
  | 26,22,
  | 26,23,
  | 26,24,
  | 26,25,
  | 26,27,
  | 26,28,
  | 26,29,
  | 26,30,
  | 26,31,
  | 26,32,
  | 26,33,
  | 26,34,
  | 26,35,
  | 26,36,
  | 27,17,
  | 27,18,
  | 27,19,
  | 27,20,
  | 27,21,
  | 27,22,
  | 27,23,
  | 27,24,
  | 27,25,
  | 27,26,
  | 27,28,
  | 27,29,
  | 27,30,
  | 27,31,
  | 27,32,
  | 27,33,
  | 27,34,
  | 27,35,
  | 27,36,
  | 27,37,
  | 28,18,
  | 28,19,
  | 28,20,
  | 28,21,
  | 28,22,
  | 28,23,
  | 28,24,
  | 28,25,
  | 28,26,
  | 28,27,
  | 28,29,
  | 28,30,
  | 28,31,
  | 28,32,
  | 28,33,
  | 28,34,
  | 28,35,
  | 28,36,
  | 28,37,
  | 28,38,
  | 29,19,
  | 29,20,
  | 29,21,
  | 29,22,
  | 29,23,
  | 29,24,
  | 29,25,
  | 29,26,
  | 29,27,
  | 29,28,
  | 29,30,
  | 29,31,
  | 29,32,
  | 29,33,
  | 29,34,
  | 29,35,
  | 29,36,
  | 29,37,
  | 29,38,
  | 29,39,
  | 30,20,
  | 30,21,
  | 30,22,
  | 30,23,
  | 30,24,
  | 30,25,
  | 30,26,
  | 30,27,
  | 30,28,
  | 30,29,
  | 30,31,
  | 30,32,
  | 30,33,
  | 30,34,
  | 30,35,
  | 30,36,
  | 30,37,
  | 30,38,
  | 30,39,
  | 30,40,
  | 31,21,
  | 31,22,
  | 31,23,
  | 31,24,
  | 31,25,
  | 31,26,
  | 31,27,
  | 31,28,
  | 31,29,
  | 31,30,
  | 31,32,
  | 31,33,
  | 31,34,
  | 31,35,
  | 31,36,
  | 31,37,
  | 31,38,
  | 31,39,
  | 31,40,
  | 31,41,
  | 32,22,
  | 32,23,
  | 32,24,
  | 32,25,
  | 32,26,
  | 32,27,
  | 32,28,
  | 32,29,
  | 32,30,
  | 32,31,
  | 32,33,
  | 32,34,
  | 32,35,
  | 32,36,
  | 32,37,
  | 32,38,
  | 32,39,
  | 32,40,
  | 32,41,
  | 32,42,
  | 33,23,
  | 33,24,
  | 33,25,
  | 33,26,
  | 33,27,
  | 33,28,
  | 33,29,
  | 33,30,
  | 33,31,
  | 33,32,
  | 33,34,
  | 33,35,
  | 33,36,
  | 33,37,
  | 33,38,
  | 33,39,
  | 33,40,
  | 33,41,
  | 33,42,
  | 33,43,
  | 34,24,
  | 34,25,
  | 34,26,
  | 34,27,
  | 34,28,
  | 34,29,
  | 34,30,
  | 34,31,
  | 34,32,
  | 34,33,
  | 34,35,
  | 34,36,
  | 34,37,
  | 34,38,
  | 34,39,
  | 34,40,
  | 34,41,
  | 34,42,
  | 34,43,
  | 34,44,
  | 35,25,
  | 35,26,
  | 35,27,
  | 35,28,
  | 35,29,
  | 35,30,
  | 35,31,
  | 35,32,
  | 35,33,
  | 35,34,
  | 35,36,
  | 35,37,
  | 35,38,
  | 35,39,
  | 35,40,
  | 35,41,
  | 35,42,
  | 35,43,
  | 35,44,
  | 35,45,
  | 36,26,
  | 36,27,
  | 36,28,
  | 36,29,
  | 36,30,
  | 36,31,
  | 36,32,
  | 36,33,
  | 36,34,
  | 36,35,
  | 36,37,
  | 36,38,
  | 36,39,
  | 36,40,
  | 36,41,
  | 36,42,
  | 36,43,
  | 36,44,
  | 36,45,
  | 36,46,
  | 37,27,
  | 37,28,
  | 37,29,
  | 37,30,
  | 37,31,
  | 37,32,
  | 37,33,
  | 37,34,
  | 37,35,
  | 37,36,
  | 37,38,
  | 37,39,
  | 37,40,
  | 37,41,
  | 37,42,
  | 37,43,
  | 37,44,
  | 37,45,
  | 37,46,
  | 37,47,
  | 38,28,
  | 38,29,
  | 38,30,
  | 38,31,
  | 38,32,
  | 38,33,
  | 38,34,
  | 38,35,
  | 38,36,
  | 38,37,
  | 38,39,
  | 38,40,
  | 38,41,
  | 38,42,
  | 38,43,
  | 38,44,
  | 38,45,
  | 38,46,
  | 38,47,
  | 38,48,
  | 39,29,
  | 39,30,
  | 39,31,
  | 39,32,
  | 39,33,
  | 39,34,
  | 39,35,
  | 39,36,
  | 39,37,
  | 39,38,
  | 39,40,
  | 39,41,
  | 39,42,
  | 39,43,
  | 39,44,
  | 39,45,
  | 39,46,
  | 39,47,
  | 39,48,
  | 39,49,
  | 40,30,
  | 40,31,
  | 40,32,
  | 40,33,
  | 40,34,
  | 40,35,
  | 40,36,
  | 40,37,
  | 40,38,
  | 40,39,
  | 40,41,
  | 40,42,
  | 40,43,
  | 40,44,
  | 40,45,
  | 40,46,
  | 40,47,
  | 40,48,
  | 40,49,
  | 40,50,
  | 41,31,
  | 41,32,
  | 41,33,
  | 41,34,
  | 41,35,
  | 41,36,
  | 41,37,
  | 41,38,
  | 41,39,
  | 41,40,
  | 41,42,
  | 41,43,
  | 41,44,
  | 41,45,
  | 41,46,
  | 41,47,
  | 41,48,
  | 41,49,
  | 41,50,
  | 41,51,
  | 42,32,
  | 42,33,
  | 42,34,
  | 42,35,
  | 42,36,
  | 42,37,
  | 42,38,
  | 42,39,
  | 42,40,
  | 42,41,
  | 42,43,
  | 42,44,
  | 42,45,
  | 42,46,
  | 42,47,
  | 42,48,
  | 42,49,
  | 42,50,
  | 42,51,
  | 42,52,
  | 43,33,
  | 43,34,
  | 43,35,
  | 43,36,
  | 43,37,
  | 43,38,
  | 43,39,
  | 43,40,
  | 43,41,
  | 43,42,
  | 43,44,
  | 43,45,
  | 43,46,
  | 43,47,
  | 43,48,
  | 43,49,
  | 43,50,
  | 43,51,
  | 43,52,
  | 43,53,
  | 44,34,
  | 44,35,
  | 44,36,
  | 44,37,
  | 44,38,
  | 44,39,
  | 44,40,
  | 44,41,
  | 44,42,
  | 44,43,
  | 44,45,
  | 44,46,
  | 44,47,
  | 44,48,
  | 44,49,
  | 44,50,
  | 44,51,
  | 44,52,
  | 44,53,
  | 44,54,
  | 45,35,
  | 45,36,
  | 45,37,
  | 45,38,
  | 45,39,
  | 45,40,
  | 45,41,
  | 45,42,
  | 45,43,
  | 45,44,
  | 45,46,
  | 45,47,
  | 45,48,
  | 45,49,
  | 45,50,
  | 45,51,
  | 45,52,
  | 45,53,
  | 45,54,
  | 45,55,
  | 46,36,
  | 46,37,
  | 46,38,
  | 46,39,
  | 46,40,
  | 46,41,
  | 46,42,
  | 46,43,
  | 46,44,
  | 46,45,
  | 46,47,
  | 46,48,
  | 46,49,
  | 46,50,
  | 46,51,
  | 46,52,
  | 46,53,
  | 46,54,
  | 46,55,
  | 46,56,
  | 47,37,
  | 47,38,
  | 47,39,
  | 47,40,
  | 47,41,
  | 47,42,
  | 47,43,
  | 47,44,
  | 47,45,
  | 47,46,
  | 47,48,
  | 47,49,
  | 47,50,
  | 47,51,
  | 47,52,
  | 47,53,
  | 47,54,
  | 47,55,
  | 47,56,
  | 47,57,
  | 48,38,
  | 48,39,
  | 48,40,
  | 48,41,
  | 48,42,
  | 48,43,
  | 48,44,
  | 48,45,
  | 48,46,
  | 48,47,
  | 48,49,
  | 48,50,
  | 48,51,
  | 48,52,
  | 48,53,
  | 48,54,
  | 48,55,
  | 48,56,
  | 48,57,
  | 48,58,
  | 49,39,
  | 49,40,
  | 49,41,
  | 49,42,
  | 49,43,
  | 49,44,
  | 49,45,
  | 49,46,
  | 49,47,
  | 49,48,
  | 49,50,
  | 49,51,
  | 49,52,
  | 49,53,
  | 49,54,
  | 49,55,
  | 49,56,
  | 49,57,
  | 49,58,
  | 49,59,
  | 50,40,
  | 50,41,
  | 50,42,
  | 50,43,
  | 50,44,
  | 50,45,
  | 50,46,
  | 50,47,
  | 50,48,
  | 50,49,
  | 50,51,
  | 50,52,
  | 50,53,
  | 50,54,
  | 50,55,
  | 50,56,
  | 50,57,
  | 50,58,
  | 50,59,
  | 50,60,
  | 51,41,
  | 51,42,
  | 51,43,
  | 51,44,
  | 51,45,
  | 51,46,
  | 51,47,
  | 51,48,
  | 51,49,
  | 51,50,
  | 51,52,
  | 51,53,
  | 51,54,
  | 51,55,
  | 51,56,
  | 51,57,
  | 51,58,
  | 51,59,
  | 51,60,
  | 51,61,
  | 52,42,
  | 52,43,
  | 52,44,
  | 52,45,
  | 52,46,
  | 52,47,
  | 52,48,
  | 52,49,
  | 52,50,
  | 52,51,
  | 52,53,
  | 52,54,
  | 52,55,
  | 52,56,
  | 52,57,
  | 52,58,
  | 52,59,
  | 52,60,
  | 52,61,
  | 52,62,
  | 53,43,
  | 53,44,
  | 53,45,
  | 53,46,
  | 53,47,
  | 53,48,
  | 53,49,
  | 53,50,
  | 53,51,
  | 53,52,
  | 53,54,
  | 53,55,
  | 53,56,
  | 53,57,
  | 53,58,
  | 53,59,
  | 53,60,
  | 53,61,
  | 53,62,
  | 53,63,
  | 54,44,
  | 54,45,
  | 54,46,
  | 54,47,
  | 54,48,
  | 54,49,
  | 54,50,
  | 54,51,
  | 54,52,
  | 54,53,
  | 54,55,
  | 54,56,
  | 54,57,
  | 54,58,
  | 54,59,
  | 54,60,
  | 54,61,
  | 54,62,
  | 54,63,
  | 54,64,
  | 55,45,
  | 55,46,
  | 55,47,
  | 55,48,
  | 55,49,
  | 55,50,
  | 55,51,
  | 55,52,
  | 55,53,
  | 55,54,
  | 55,56,
  | 55,57,
  | 55,58,
  | 55,59,
  | 55,60,
  | 55,61,
  | 55,62,
  | 55,63,
  | 55,64,
  | 55,65,
  | 56,46,
  | 56,47,
  | 56,48,
  | 56,49,
  | 56,50,
  | 56,51,
  | 56,52,
  | 56,53,
  | 56,54,
  | 56,55,
  | 56,57,
  | 56,58,
  | 56,59,
  | 56,60,
  | 56,61,
  | 56,62,
  | 56,63,
  | 56,64,
  | 56,65,
  | 56,66,
  | 57,47,
  | 57,48,
  | 57,49,
  | 57,50,
  | 57,51,
  | 57,52,
  | 57,53,
  | 57,54,
  | 57,55,
  | 57,56,
  | 57,58,
  | 57,59,
  | 57,60,
  | 57,61,
  | 57,62,
  | 57,63,
  | 57,64,
  | 57,65,
  | 57,66,
  | 57,67,
  | 58,48,
  | 58,49,
  | 58,50,
  | 58,51,
  | 58,52,
  | 58,53,
  | 58,54,
  | 58,55,
  | 58,56,
  | 58,57,
  | 58,59,
  | 58,60,
  | 58,61,
  | 58,62,
  | 58,63,
  | 58,64,
  | 58,65,
  | 58,66,
  | 58,67,
  | 58,68,
  | 59,49,
  | 59,50,
  | 59,51,
  | 59,52,
  | 59,53,
  | 59,54,
  | 59,55,
  | 59,56,
  | 59,57,
  | 59,58,
  | 59,60,
  | 59,61,
  | 59,62,
  | 59,63,
  | 59,64,
  | 59,65,
  | 59,66,
  | 59,67,
  | 59,68,
  | 59,69,
  | 60,50,
  | 60,51,
  | 60,52,
  | 60,53,
  | 60,54,
  | 60,55,
  | 60,56,
  | 60,57,
  | 60,58,
  | 60,59,
  | 60,61,
  | 60,62,
  | 60,63,
  | 60,64,
  | 60,65,
  | 60,66,
  | 60,67,
  | 60,68,
  | 60,69,
  | 60,70,
  | 61,51,
  | 61,52,
  | 61,53,
  | 61,54,
  | 61,55,
  | 61,56,
  | 61,57,
  | 61,58,
  | 61,59,
  | 61,60,
  | 61,62,
  | 61,63,
  | 61,64,
  | 61,65,
  | 61,66,
  | 61,67,
  | 61,68,
  | 61,69,
  | 61,70,
  | 61,71,
  | 62,52,
  | 62,53,
  | 62,54,
  | 62,55,
  | 62,56,
  | 62,57,
  | 62,58,
  | 62,59,
  | 62,60,
  | 62,61,
  | 62,63,
  | 62,64,
  | 62,65,
  | 62,66,
  | 62,67,
  | 62,68,
  | 62,69,
  | 62,70,
  | 62,71,
  | 62,72,
  | 63,53,
  | 63,54,
  | 63,55,
  | 63,56,
  | 63,57,
  | 63,58,
  | 63,59,
  | 63,60,
  | 63,61,
  | 63,62,
  | 63,64,
  | 63,65,
  | 63,66,
  | 63,67,
  | 63,68,
  | 63,69,
  | 63,70,
  | 63,71,
  | 63,72,
  | 63,73,
  | 64,54,
  | 64,55,
  | 64,56,
  | 64,57,
  | 64,58,
  | 64,59,
  | 64,60,
  | 64,61,
  | 64,62,
  | 64,63,
  | 64,65,
  | 64,66,
  | 64,67,
  | 64,68,
  | 64,69,
  | 64,70,
  | 64,71,
  | 64,72,
  | 64,73,
  | 64,74,
  | 65,55,
  | 65,56,
  | 65,57,
  | 65,58,
  | 65,59,
  | 65,60,
  | 65,61,
  | 65,62,
  | 65,63,
  | 65,64,
  | 65,66,
  | 65,67,
  | 65,68,
  | 65,69,
  | 65,70,
  | 65,71,
  | 65,72,
  | 65,73,
  | 65,74,
  | 65,75,
  | 66,56,
  | 66,57,
  | 66,58,
  | 66,59,
  | 66,60,
  | 66,61,
  | 66,62,
  | 66,63,
  | 66,64,
  | 66,65,
  | 66,67,
  | 66,68,
  | 66,69,
  | 66,70,
  | 66,71,
  | 66,72,
  | 66,73,
  | 66,74,
  | 66,75,
  | 66,76,
  | 67,57,
  | 67,58,
  | 67,59,
  | 67,60,
  | 67,61,
  | 67,62,
  | 67,63,
  | 67,64,
  | 67,65,
  | 67,66,
  | 67,68,
  | 67,69,
  | 67,70,
  | 67,71,
  | 67,72,
  | 67,73,
  | 67,74,
  | 67,75,
  | 67,76,
  | 67,77,
  | 68,58,
  | 68,59,
  | 68,60,
  | 68,61,
  | 68,62,
  | 68,63,
  | 68,64,
  | 68,65,
  | 68,66,
  | 68,67,
  | 68,69,
  | 68,70,
  | 68,71,
  | 68,72,
  | 68,73,
  | 68,74,
  | 68,75,
  | 68,76,
  | 68,77,
  | 68,78,
  | 69,59,
  | 69,60,
  | 69,61,
  | 69,62,
  | 69,63,
  | 69,64,
  | 69,65,
  | 69,66,
  | 69,67,
  | 69,68,
  | 69,70,
  | 69,71,
  | 69,72,
  | 69,73,
  | 69,74,
  | 69,75,
  | 69,76,
  | 69,77,
  | 69,78,
  | 69,79,
  | 70,60,
  | 70,61,
  | 70,62,
  | 70,63,
  | 70,64,
  | 70,65,
  | 70,66,
  | 70,67,
  | 70,68,
  | 70,69,
  | 70,71,
  | 70,72,
  | 70,73,
  | 70,74,
  | 70,75,
  | 70,76,
  | 70,77,
  | 70,78,
  | 70,79,
  | 70,80,
  | 71,61,
  | 71,62,
  | 71,63,
  | 71,64,
  | 71,65,
  | 71,66,
  | 71,67,
  | 71,68,
  | 71,69,
  | 71,70,
  | 71,72,
  | 71,73,
  | 71,74,
  | 71,75,
  | 71,76,
  | 71,77,
  | 71,78,
  | 71,79,
  | 71,80,
  | 71,81,
  | 72,62,
  | 72,63,
  | 72,64,
  | 72,65,
  | 72,66,
  | 72,67,
  | 72,68,
  | 72,69,
  | 72,70,
  | 72,71,
  | 72,73,
  | 72,74,
  | 72,75,
  | 72,76,
  | 72,77,
  | 72,78,
  | 72,79,
  | 72,80,
  | 72,81,
  | 72,82,
  | 73,63,
  | 73,64,
  | 73,65,
  | 73,66,
  | 73,67,
  | 73,68,
  | 73,69,
  | 73,70,
  | 73,71,
  | 73,72,
  | 73,74,
  | 73,75,
  | 73,76,
  | 73,77,
  | 73,78,
  | 73,79,
  | 73,80,
  | 73,81,
  | 73,82,
  | 73,83,
  | 74,64,
  | 74,65,
  | 74,66,
  | 74,67,
  | 74,68,
  | 74,69,
  | 74,70,
  | 74,71,
  | 74,72,
  | 74,73,
  | 74,75,
  | 74,76,
  | 74,77,
  | 74,78,
  | 74,79,
  | 74,80,
  | 74,81,
  | 74,82,
  | 74,83,
  | 74,84,
  | 75,65,
  | 75,66,
  | 75,67,
  | 75,68,
  | 75,69,
  | 75,70,
  | 75,71,
  | 75,72,
  | 75,73,
  | 75,74,
  | 75,76,
  | 75,77,
  | 75,78,
  | 75,79,
  | 75,80,
  | 75,81,
  | 75,82,
  | 75,83,
  | 75,84,
  | 75,85,
  | 76,66,
  | 76,67,
  | 76,68,
  | 76,69,
  | 76,70,
  | 76,71,
  | 76,72,
  | 76,73,
  | 76,74,
  | 76,75,
  | 76,77,
  | 76,78,
  | 76,79,
  | 76,80,
  | 76,81,
  | 76,82,
  | 76,83,
  | 76,84,
  | 76,85,
  | 76,86,
  | 77,67,
  | 77,68,
  | 77,69,
  | 77,70,
  | 77,71,
  | 77,72,
  | 77,73,
  | 77,74,
  | 77,75,
  | 77,76,
  | 77,78,
  | 77,79,
  | 77,80,
  | 77,81,
  | 77,82,
  | 77,83,
  | 77,84,
  | 77,85,
  | 77,86,
  | 77,87,
  | 78,68,
  | 78,69,
  | 78,70,
  | 78,71,
  | 78,72,
  | 78,73,
  | 78,74,
  | 78,75,
  | 78,76,
  | 78,77,
  | 78,79,
  | 78,80,
  | 78,81,
  | 78,82,
  | 78,83,
  | 78,84,
  | 78,85,
  | 78,86,
  | 78,87,
  | 78,88,
  | 79,69,
  | 79,70,
  | 79,71,
  | 79,72,
  | 79,73,
  | 79,74,
  | 79,75,
  | 79,76,
  | 79,77,
  | 79,78,
  | 79,80,
  | 79,81,
  | 79,82,
  | 79,83,
  | 79,84,
  | 79,85,
  | 79,86,
  | 79,87,
  | 79,88,
  | 79,89,
  | 80,70,
  | 80,71,
  | 80,72,
  | 80,73,
  | 80,74,
  | 80,75,
  | 80,76,
  | 80,77,
  | 80,78,
  | 80,79,
  | 80,81,
  | 80,82,
  | 80,83,
  | 80,84,
  | 80,85,
  | 80,86,
  | 80,87,
  | 80,88,
  | 80,89,
  | 80,90,
  | 81,71,
  | 81,72,
  | 81,73,
  | 81,74,
  | 81,75,
  | 81,76,
  | 81,77,
  | 81,78,
  | 81,79,
  | 81,80,
  | 81,82,
  | 81,83,
  | 81,84,
  | 81,85,
  | 81,86,
  | 81,87,
  | 81,88,
  | 81,89,
  | 81,90,
  | 81,91,
  | 82,72,
  | 82,73,
  | 82,74,
  | 82,75,
  | 82,76,
  | 82,77,
  | 82,78,
  | 82,79,
  | 82,80,
  | 82,81,
  | 82,83,
  | 82,84,
  | 82,85,
  | 82,86,
  | 82,87,
  | 82,88,
  | 82,89,
  | 82,90,
  | 82,91,
  | 82,92,
  | 83,73,
  | 83,74,
  | 83,75,
  | 83,76,
  | 83,77,
  | 83,78,
  | 83,79,
  | 83,80,
  | 83,81,
  | 83,82,
  | 83,84,
  | 83,85,
  | 83,86,
  | 83,87,
  | 83,88,
  | 83,89,
  | 83,90,
  | 83,91,
  | 83,92,
  | 83,93,
  | 84,74,
  | 84,75,
  | 84,76,
  | 84,77,
  | 84,78,
  | 84,79,
  | 84,80,
  | 84,81,
  | 84,82,
  | 84,83,
  | 84,85,
  | 84,86,
  | 84,87,
  | 84,88,
  | 84,89,
  | 84,90,
  | 84,91,
  | 84,92,
  | 84,93,
  | 84,94,
  | 85,75,
  | 85,76,
  | 85,77,
  | 85,78,
  | 85,79,
  | 85,80,
  | 85,81,
  | 85,82,
  | 85,83,
  | 85,84,
  | 85,86,
  | 85,87,
  | 85,88,
  | 85,89,
  | 85,90,
  | 85,91,
  | 85,92,
  | 85,93,
  | 85,94,
  | 85,95,
  | 86,76,
  | 86,77,
  | 86,78,
  | 86,79,
  | 86,80,
  | 86,81,
  | 86,82,
  | 86,83,
  | 86,84,
  | 86,85,
  | 86,87,
  | 86,88,
  | 86,89,
  | 86,90,
  | 86,91,
  | 86,92,
  | 86,93,
  | 86,94,
  | 86,95,
  | 86,96,
  | 87,77,
  | 87,78,
  | 87,79,
  | 87,80,
  | 87,81,
  | 87,82,
  | 87,83,
  | 87,84,
  | 87,85,
  | 87,86,
  | 87,88,
  | 87,89,
  | 87,90,
  | 87,91,
  | 87,92,
  | 87,93,
  | 87,94,
  | 87,95,
  | 87,96,
  | 87,97,
  | 88,78,
  | 88,79,
  | 88,80,
  | 88,81,
  | 88,82,
  | 88,83,
  | 88,84,
  | 88,85,
  | 88,86,
  | 88,87,
  | 88,89,
  | 88,90,
  | 88,91,
  | 88,92,
  | 88,93,
  | 88,94,
  | 88,95,
  | 88,96,
  | 88,97,
  | 88,98,
  | 89,79,
  | 89,80,
  | 89,81,
  | 89,82,
  | 89,83,
  | 89,84,
  | 89,85,
  | 89,86,
  | 89,87,
  | 89,88,
  | 89,90,
  | 89,91,
  | 89,92,
  | 89,93,
  | 89,94,
  | 89,95,
  | 89,96,
  | 89,97,
  | 89,98,
  | 89,99,
  | 90,80,
  | 90,81,
  | 90,82,
  | 90,83,
  | 90,84,
  | 90,85,
  | 90,86,
  | 90,87,
  | 90,88,
  | 90,89,
  | 90,91,
  | 90,92,
  | 90,93,
  | 90,94,
  | 90,95,
  | 90,96,
  | 90,97,
  | 90,98,
  | 90,99,
  | 90,100,
  | 91,1,
  | 91,81,
  | 91,82,
  | 91,83,
  | 91,84,
  | 91,85,
  | 91,86,
  | 91,87,
  | 91,88,
  | 91,89,
  | 91,90,
  | 91,92,
  | 91,93,
  | 91,94,
  | 91,95,
  | 91,96,
  | 91,97,
  | 91,98,
  | 91,99,
  | 91,100,
  | 92,1,
  | 92,2,
  | 92,82,
  | 92,83,
  | 92,84,
  | 92,85,
  | 92,86,
  | 92,87,
  | 92,88,
  | 92,89,
  | 92,90,
  | 92,91,
  | 92,93,
  | 92,94,
  | 92,95,
  | 92,96,
  | 92,97,
  | 92,98,
  | 92,99,
  | 92,100,
  | 93,1,
  | 93,2,
  | 93,3,
  | 93,83,
  | 93,84,
  | 93,85,
  | 93,86,
  | 93,87,
  | 93,88,
  | 93,89,
  | 93,90,
  | 93,91,
  | 93,92,
  | 93,94,
  | 93,95,
  | 93,96,
  | 93,97,
  | 93,98,
  | 93,99,
  | 93,100,
  | 94,1,
  | 94,2,
  | 94,3,
  | 94,4,
  | 94,84,
  | 94,85,
  | 94,86,
  | 94,87,
  | 94,88,
  | 94,89,
  | 94,90,
  | 94,91,
  | 94,92,
  | 94,93,
  | 94,95,
  | 94,96,
  | 94,97,
  | 94,98,
  | 94,99,
  | 94,100,
  | 95,1,
  | 95,2,
  | 95,3,
  | 95,4,
  | 95,5,
  | 95,85,
  | 95,86,
  | 95,87,
  | 95,88,
  | 95,89,
  | 95,90,
  | 95,91,
  | 95,92,
  | 95,93,
  | 95,94,
  | 95,96,
  | 95,97,
  | 95,98,
  | 95,99,
  | 95,100,
  | 96,1,
  | 96,2,
  | 96,3,
  | 96,4,
  | 96,5,
  | 96,6,
  | 96,86,
  | 96,87,
  | 96,88,
  | 96,89,
  | 96,90,
  | 96,91,
  | 96,92,
  | 96,93,
  | 96,94,
  | 96,95,
  | 96,97,
  | 96,98,
  | 96,99,
  | 96,100,
  | 97,1,
  | 97,2,
  | 97,3,
  | 97,4,
  | 97,5,
  | 97,6,
  | 97,7,
  | 97,87,
  | 97,88,
  | 97,89,
  | 97,90,
  | 97,91,
  | 97,92,
  | 97,93,
  | 97,94,
  | 97,95,
  | 97,96,
  | 97,98,
  | 97,99,
  | 97,100,
  | 98,1,
  | 98,2,
  | 98,3,
  | 98,4,
  | 98,5,
  | 98,6,
  | 98,7,
  | 98,8,
  | 98,88,
  | 98,89,
  | 98,90,
  | 98,91,
  | 98,92,
  | 98,93,
  | 98,94,
  | 98,95,
  | 98,96,
  | 98,97,
  | 98,99,
  | 98,100,
  | 99,1,
  | 99,2,
  | 99,3,
  | 99,4,
  | 99,5,
  | 99,6,
  | 99,7,
  | 99,8,
  | 99,9,
  | 99,89,
  | 99,90,
  | 99,91,
  | 99,92,
  | 99,93,
  | 99,94,
  | 99,95,
  | 99,96,
  | 99,97,
  | 99,98,
  | 99,100,
  | 100,1,
  | 100,2,
  | 100,3,
  | 100,4,
  | 100,5,
  | 100,6,
  | 100,7,
  | 100,8,
  | 100,9,
  | 100,10,
  | 100,90,
  | 100,91,
  | 100,92,
  | 100,93,
  | 100,94,
  | 100,95,
  | 100,96,
  | 100,97,
  | 100,98,
  | 100,99 |];

t = 247;

indexes = [|
    0,6,
  | 0,11,
  | 0,22,
  | 0,53,
  | 0,76,
  | 0,94,
  | 1,18,
  | 1,19,
  | 1,27,
  | 1,32,
  | 1,48,
  | 2,28,
  | 2,36,
  | 2,46,
  | 2,74,
  | 2,94,
  | 3,14,
  | 3,17,
  | 3,55,
  | 3,61,
  | 3,75,
  | 4,46,
  | 4,54,
  | 4,66,
  | 4,74,
  | 5,9,
  | 5,39,
  | 5,50,
  | 5,68,
  | 5,72,
  | 6,29,
  | 6,65,
  | 6,82,
  | 6,86,
  | 6,92,
  | 7,14,
  | 7,29,
  | 7,30,
  | 7,69,
  | 7,75,
  | 7,91,
  | 8,64,
  | 8,95,
  | 9,12,
  | 9,16,
  | 9,47,
  | 9,72,
  | 9,98,
  | 10,13,
  | 10,26,
  | 10,56,
  | 10,58,
  | 10,90,
  | 11,24,
  | 11,37,
  | 11,53,
  | 11,83,
  | 14,30,
  | 14,51,
  | 14,83,
  | 15,29,
  | 15,65,
  | 15,69,
  | 15,86,
  | 15,92,
  | 15,94,
  | 16,56,
  | 17,25,
  | 17,34,
  | 17,40,
  | 17,55,
  | 17,73,
  | 18,19,
  | 18,25,
  | 18,31,
  | 18,73,
  | 18,88,
  | 19,32,
  | 19,79,
  | 20,74,
  | 21,82,
  | 21,86,
  | 21,89,
  | 21,92,
  | 22,28,
  | 22,37,
  | 22,46,
  | 22,62,
  | 22,82,
  | 23,27,
  | 23,31,
  | 23,79,
  | 23,86,
  | 24,28,
  | 24,36,
  | 24,64,
  | 25,32,
  | 25,69,
  | 25,75,
  | 25,87,
  | 26,47,
  | 26,58,
  | 26,63,
  | 26,98,
  | 27,31,
  | 27,79,
  | 27,89,
  | 28,53,
  | 28,64,
  | 28,95,
  | 29,37,
  | 29,76,
  | 29,83,
  | 30,51,
  | 30,65,
  | 31,69,
  | 31,91,
  | 31,92,
  | 32,34,
  | 32,70,
  | 32,73,
  | 33,39,
  | 33,47,
  | 33,71,
  | 33,72,
  | 33,80,
  | 33,84,
  | 34,38,
  | 34,43,
  | 34,59,
  | 34,88,
  | 35,46,
  | 35,62,
  | 35,82,
  | 35,99,
  | 36,37,
  | 36,52,
  | 36,64,
  | 36,95,
  | 37,53,
  | 37,94,
  | 38,40,
  | 38,45,
  | 38,61,
  | 38,75,
  | 38,87,
  | 39,49,
  | 39,80,
  | 39,96,
  | 40,59,
  | 40,61,
  | 41,44,
  | 41,49,
  | 41,85,
  | 41,88,
  | 41,96,
  | 41,97,
  | 42,56,
  | 43,44,
  | 43,48,
  | 43,70,
  | 43,87,
  | 43,97,
  | 44,60,
  | 44,96,
  | 45,63,
  | 45,77,
  | 45,85,
  | 45,93,
  | 45,97,
  | 46,54,
  | 46,95,
  | 47,56,
  | 47,57,
  | 47,68,
  | 48,70,
  | 48,88,
  | 48,96,
  | 49,68,
  | 49,71,
  | 49,80,
  | 49,84,
  | 51,55,
  | 51,69,
  | 51,73,
  | 51,91,
  | 54,74,
  | 54,99,
  | 55,75,
  | 56,58,
  | 56,98,
  | 57,58,
  | 57,71,
  | 57,78,
  | 57,84,
  | 57,90,
  | 59,61,
  | 59,77,
  | 59,87,
  | 59,97,
  | 60,71,
  | 60,80,
  | 60,85,
  | 60,96,
  | 60,97,
  | 61,93,
  | 62,74,
  | 62,92,
  | 62,94,
  | 62,99,
  | 63,71,
  | 63,78,
  | 63,84,
  | 63,90,
  | 65,76,
  | 65,83,
  | 65,91,
  | 66,95,
  | 67,98,
  | 68,72,
  | 68,98,
  | 69,79,
  | 70,88,
  | 71,81,
  | 73,75,
  | 73,79,
  | 74,95,
  | 76,83,
  | 77,81,
  | 77,93,
  | 78,81,
  | 78,90,
  | 79,91,
  | 81,85,
  | 81,93,
  | 81,97,
  | 82,94,
  | 82,99,
  | 84,85,
  | 84,98,
  | 85,87,
  | 86,89,
  | 86,91,
  | 87,88,
  | 89,92,
  | 89,99,
  | 90,93 |];

